
Gurobi 10.0.0 (linux64, Python) logging started Sat Apr 15 08:06:58 2023

Set parameter Username
Set parameter LogFile to value "gurobi.log"
Academic license - for non-commercial use only - expires 2023-12-01
